data/easy_6.dzn
num_nodi = 5;
ufficio_postale = 3;
dim_borsa = 100;
max_step = 10;
elenco_lettere = [10, 9, 0, 0, 0];
distanze = [|0, 21, 15, 2, 21
|22, 0, 25, 13, 20
|6, 13, 0, 24, 22
|11, 4, 6, 0, 7
|6, 17, 20, 13, 0
|];
