data/easy_6.lp
node(1..5).

ufficio_postale(3).

dim_borsa(100).

time(1..10).

lettere(1,10).
lettere(2,9).
lettere(3,0).
lettere(4,0).
lettere(5,0).

costo_arco(1, 1, 0).
costo_arco(1, 2, 21).
costo_arco(1, 3, 15).
costo_arco(1, 4, 2).
costo_arco(1, 5, 21).

costo_arco(2, 1, 22).
costo_arco(2, 2, 0).
costo_arco(2, 3, 25).
costo_arco(2, 4, 13).
costo_arco(2, 5, 20).

costo_arco(3, 1, 6).
costo_arco(3, 2, 13).
costo_arco(3, 3, 0).
costo_arco(3, 4, 24).
costo_arco(3, 5, 22).

costo_arco(4, 1, 11).
costo_arco(4, 2, 4).
costo_arco(4, 3, 6).
costo_arco(4, 4, 0).
costo_arco(4, 5, 7).

costo_arco(5, 1, 6).
costo_arco(5, 2, 17).
costo_arco(5, 3, 20).
costo_arco(5, 4, 13).
costo_arco(5, 5, 0).

